116-84-17-18-24-107-42-78-51-32-99-57-90-67-64-68-112-106-19-45-49-16-48-12-117-97-41-40-55-73-71-39-6-37-3-118-102-22-50-114-1-10-8-81-2-52-63-92-20-108-87-96-11-94-76-62-38-82-56-66-36-61-105-113-72-4-26-79-100-101-109-111-103-98-9-34-83-35-5-54-88-47-46-70-25-33-115-69-7-53-89-95-110-23-59-104-27-91-31-119-60-15-0-75-28-29-58-14-80-93-77-44-13-86-43-74-85-21-65-30 7403
